Quantum-Cryptanalysis/instances/samples/hf_n32/hf_n32_cnf12.sol
c DPLL-like Solver for max-min SAT
f file hf_n32_cnf12.cnf
p cnf 32 220
s max  220 4 25 3 -1 -2 12 -11 -31 -9 -27 -10 15 14 -16 -13 -24 -17 30 8 7 5 -6 -18 -21 -23 -28 -29 -26 -20 -22 -19 -32
s min  192 11 31 10 9 16 -13 24 14 8 -26 15 -32 -28 12 27 18 30 -20 -23 21 -19 17 -22 25 29 1 2 -3 -4 5 6 -7